<number of tasks>
50

<cycle time>
1000

<order strength>
0.195


<task times>
1 590
2 151
3 102
4 437
5 226
6 493
7 545
8 183
9 524
10 473
11 230
12 112
13 118
14 115
15 59
16 203
17 77
18 216
19 237
20 217
21 196
22 245
23 547
24 166
25 172
26 482
27 544
28 272
29 61
30 71
31 178
32 222
33 127
34 40
35 171
36 53
37 128
38 81
39 90
40 30
41 113
42 110
43 522
44 544
45 322
46 70
47 182
48 521
49 89
50 199

<precedence relations>
1,8
1,9
1,10
2,7
2,11
4,7
5,12
6,10
7,32
8,32
9,15
10,13
10,16
10,18
10,19
11,14
12,17
13,32
14,32
15,22
16,20
16,21
17,24
18,25
19,23
20,27
21,28
24,29
24,30
25,26
25,31
26,32
27,34
28,33
29,38
30,35
30,36
30,39
31,37
32,40
32,41
32,42
32,43
33,45
34,46
35,44
38,47
43,50
44,48
45,49

<end>
